(set-logic QF_S)
(set-option :strings-exp true)
(set-option :produce-models true)
(declare-fun sigmaStar_0 () String)
(declare-fun literal_5 () String)
(assert (= literal_5 "\x2f\x63\x61\x63\x68\x65\x2f\x72\x73\x73\x63\x61\x63\x68\x65\x2f\x72\x73\x73\x69\x64\x2e\x78\x6d\x6c"))
(assert (str.in.re literal_5 (re.++ (re.* re.allchar) (re.++ (str.to.re "\x2f\x65\x76\x69\x6c") (re.* re.allchar)))))
(check-sat)
(get-model)
